Version identifier: 22.1.0.0 | 2022-03-09 | 1a383f8ce
CPXPARAM_Read_DataCheck                          1
CPXPARAM_Threads                                 1
CPXPARAM_TimeLimit                               3600
Tried aggregator 2 times.
MIP Presolve eliminated 260 rows and 17 columns.
MIP Presolve modified 4084 coefficients.
Aggregator did 39 substitutions.
Reduced MIP has 1132 rows, 184 columns, and 7366 nonzeros.
Reduced MIP has 129 binaries, 0 generals, 0 SOSs, and 0 indicators.
Presolve time = 0.03 sec. (11.25 ticks)
Probing time = 0.00 sec. (1.05 ticks)
Tried aggregator 1 time.
Detecting symmetries...
Reduced MIP has 1132 rows, 184 columns, and 7366 nonzeros.
Reduced MIP has 129 binaries, 0 generals, 0 SOSs, and 0 indicators.
Presolve time = 0.01 sec. (3.49 ticks)
Probing time = 0.00 sec. (1.00 ticks)
Clique table members: 60.
MIP emphasis: balance optimality and feasibility.
MIP search method: dynamic search.
Parallel mode: none, using 1 thread.
Root relaxation solution time = 0.01 sec. (3.33 ticks)

        Nodes                                         Cuts/
   Node  Left     Objective  IInf  Best Integer    Best Bound    ItCnt     Gap

      0     0       88.8645    41                     88.8645       75         
      0     0       88.8645    24                    Cuts: 55      157         
      0     0       88.8645    26                    Cuts: 98      256         
      0     0       88.8645    23                    Cuts: 37      366         
      0     0       88.9203    48                    Cuts: 98      497         
      0     0       88.9941    59                   Cuts: 284      605         
Detecting symmetries...
      0     0       89.1028    52                   Cuts: 109      698         
      0     0       89.1194    42                   Cuts: 170      771         
      0     0       89.2574    80                   Cuts: 109      844         
      0     0       89.2700    78                    Cuts: 66      871         
      0     0       89.2791    77                    Cuts: 71      929         
      0     0       89.2802    77                   Cuts: 130      965         
*     0+    0                          120.2551       89.2802            25.76%
Detecting symmetries...
      0     2       89.2802    41      120.2551       89.3026      965   25.74%
Elapsed time = 0.63 sec. (276.72 ticks, tree = 0.01 MB, solutions = 1)
*   120+   16                          100.1178       89.7385            10.37%
    294   127        cutoff            100.1178       90.7073     5567    9.40%
*   306    95      integral     0       98.2533       90.7073     5794    7.68%
    406   141       96.8078    11       98.2533       91.7808     9073    6.59%
    574   171        cutoff             98.2533       92.6607    13502    5.69%
    721   159       95.8786     9       98.2533       93.5814    18683    4.75%
    870   144       96.9354    15       98.2533       94.5433    24277    3.78%
   1084    64        cutoff             98.2533       96.3615    29730    1.93%

GUB cover cuts applied:  2
Cover cuts applied:  175
Implied bound cuts applied:  12
Flow cuts applied:  1
Mixed integer rounding cuts applied:  50

Root node processing (before b&c):
  Real time             =    0.64 sec. (276.71 ticks)
Sequential b&c:
  Real time             =    3.02 sec. (1554.11 ticks)
                          ------------
Total (root+branch&cut) =    3.66 sec. (1830.82 ticks)
